c SAT Generator for power-law distributed variable frequencies
c -g u -v 20 -c 91 -k 3 -p 2.750000 -b 3.200000 -f /home/schmidt/Devel/ni-kop-sat/data/ensemble/ruf20-91/ruf20-91-754 -u 1 -U 1 -s 2834978180
p cnf 20 91
6 -11 -17 0
4 5 -16 0
7 -8 10 0
-6 -13 -17 0
6 13 -15 0
3 9 -20 0
-6 12 -14 0
-1 7 -19 0
5 -13 15 0
14 -15 19 0
11 15 17 0
-5 17 -19 0
4 7 -12 0
1 2 13 0
-11 14 19 0
2 11 -15 0
4 12 -15 0
3 11 18 0
-10 16 -18 0
-5 6 -10 0
3 7 -11 0
5 -15 -19 0
-1 11 -20 0
-1 3 16 0
3 -5 -6 0
-4 -16 17 0
-2 14 15 0
2 -18 19 0
-6 10 17 0
7 -10 14 0
3 14 17 0
-9 10 -19 0
-3 13 -16 0
5 10 -19 0
-5 -11 17 0
1 5 12 0
-3 -10 -13 0
6 11 16 0
5 -9 -16 0
-5 6 11 0
1 6 -11 0
4 -12 -13 0
1 2 -15 0
5 -9 18 0
-17 18 19 0
2 3 -13 0
-14 -15 20 0
2 -8 17 0
-9 -11 19 0
-7 -12 13 0
-13 -16 20 0
6 11 12 0
1 -16 19 0
-11 -16 -18 0
-7 -13 -18 0
-4 7 12 0
-1 -4 10 0
1 -2 10 0
-13 19 20 0
1 3 18 0
10 13 18 0
-3 -8 14 0
-1 3 -14 0
-2 -3 12 0
1 -11 12 0
-3 -16 -17 0
2 12 16 0
-7 -16 17 0
-1 7 11 0
-6 8 -14 0
-12 14 15 0
3 8 16 0
9 -10 -11 0
-11 13 17 0
-4 6 -9 0
2 -3 -16 0
-11 13 -14 0
-6 7 -16 0
7 -14 16 0
-7 -14 -19 0
-1 -6 14 0
4 -15 -17 0
-6 -8 -15 0
10 -11 15 0
-8 9 -19 0
-1 13 20 0
-12 -13 -20 0
-1 -2 19 0
-2 -14 19 0
-5 10 20 0
3 10 11 0
